solution status: optimal solution found
objective value:                                    0
Y_200                                               1 	(obj:0)
Y_1                                                 1 	(obj:0)
Y_2                                                 1 	(obj:0)
Y_3                                                 1 	(obj:0)
Y_4                                                 1 	(obj:0)
Y_5                                                 1 	(obj:0)
Y_6                                                 1 	(obj:0)
Y_7                                                 1 	(obj:0)
Y_8                                                 1 	(obj:0)
Y_9                                                 1 	(obj:0)
Y_10                                                1 	(obj:0)
Y_11                                                1 	(obj:0)
Y_12                                                1 	(obj:0)
Y_13                                                1 	(obj:0)
Y_14                                                1 	(obj:0)
Y_15                                                1 	(obj:0)
Y_16                                                1 	(obj:0)
Y_17                                                1 	(obj:0)
Y_18                                                1 	(obj:0)
Y_19                                                1 	(obj:0)
Y_20                                                1 	(obj:0)
Y_21                                                1 	(obj:0)
Y_22                                                1 	(obj:0)
Y_23                                                1 	(obj:0)
Y_24                                                1 	(obj:0)
Y_25                                                1 	(obj:0)
Y_26                                                1 	(obj:0)
Y_27                                                1 	(obj:0)
Y_28                                                1 	(obj:0)
Y_29                                                1 	(obj:0)
Y_30                                                1 	(obj:0)
Y_31                                                1 	(obj:0)
Y_32                                                1 	(obj:0)
Y_33                                                1 	(obj:0)
Y_34                                                1 	(obj:0)
Y_35                                                1 	(obj:0)
Y_36                                                1 	(obj:0)
Y_37                                                1 	(obj:0)
Y_38                                                1 	(obj:0)
Y_39                                                1 	(obj:0)
Y_40                                                1 	(obj:0)
Y_42                                                1 	(obj:0)
Y_43                                                1 	(obj:0)
Y_44                                                1 	(obj:0)
Y_45                                                1 	(obj:0)
Y_47                                                1 	(obj:0)
Y_48                                                1 	(obj:0)
Y_49                                                1 	(obj:0)
Y_50                                                1 	(obj:0)
Y_51                                                1 	(obj:0)
Y_52                                                1 	(obj:0)
Y_53                                                1 	(obj:0)
Y_54                                                1 	(obj:0)
Y_55                                                1 	(obj:0)
Y_56                                                1 	(obj:0)
Y_57                                                1 	(obj:0)
Y_58                                                1 	(obj:0)
Y_59                                                1 	(obj:0)
Y_60                                                1 	(obj:0)
Y_61                                                1 	(obj:0)
Y_62                                                1 	(obj:0)
Y_63                                                1 	(obj:0)
Y_64                                                1 	(obj:0)
Y_65                                                1 	(obj:0)
Y_66                                                1 	(obj:0)
Y_67                                                1 	(obj:0)
Y_69                                                1 	(obj:0)
Y_70                                                1 	(obj:0)
Y_71                                                1 	(obj:0)
Y_72                                                1 	(obj:0)
Y_73                                                1 	(obj:0)
Y_74                                                1 	(obj:0)
Y_75                                                1 	(obj:0)
Y_76                                                1 	(obj:0)
Y_77                                                1 	(obj:0)
Y_78                                                1 	(obj:0)
Y_79                                                1 	(obj:0)
Y_80                                                1 	(obj:0)
Y_81                                                1 	(obj:0)
Y_82                                                1 	(obj:0)
Y_83                                                1 	(obj:0)
Y_84                                                1 	(obj:0)
Y_85                                                1 	(obj:0)
Y_86                                                1 	(obj:0)
Y_87                                                1 	(obj:0)
Y_88                                                1 	(obj:0)
Y_89                                                1 	(obj:0)
Y_90                                                1 	(obj:0)
Y_91                                                1 	(obj:0)
Y_92                                                1 	(obj:0)
Y_93                                                1 	(obj:0)
Y_94                                                1 	(obj:0)
Y_95                                                1 	(obj:0)
Y_96                                                1 	(obj:0)
Y_97                                                1 	(obj:0)
Y_98                                                1 	(obj:0)
Y_99                                                1 	(obj:0)
Y_0                                                 1 	(obj:0)
fNew2_17_0_20                                       1 	(obj:0)
fNew2_18_0_20                                       1 	(obj:0)
fNew2_19_0_20                                       1 	(obj:0)
fNew2_20_0_84                                       1 	(obj:0)
fNew2_21_0_20                                       1 	(obj:0)
fNew2_22_0_84                                       1 	(obj:0)
fNew2_23_0_84                                       1 	(obj:0)
fNew2_24_0_20                                       1 	(obj:0)
fNew2_25_0_20                       0.945945945945946 	(obj:0)
fNew2_25_0_70                      0.0540540540540542 	(obj:0)
fNew2_26_0_44                                       1 	(obj:0)
fNew2_27_0_20                                       1 	(obj:0)
fNew2_28_0_84                                       1 	(obj:0)
fNew2_29_0_84                                       1 	(obj:0)
fNew2_0_2_58                                        1 	(obj:0)
fNew2_0_58_2                                        1 	(obj:0)
fNew2_0_3_38                                        1 	(obj:0)
fNew2_0_3_43                                        1 	(obj:0)
fNew2_0_3_59                                        1 	(obj:0)
fNew2_0_38_3                                        1 	(obj:0)
fNew2_0_43_3                                        1 	(obj:0)
fNew2_0_59_3                                        1 	(obj:0)
fNew2_0_6_57                                        1 	(obj:0)
fNew2_0_57_6                                        1 	(obj:0)
fNew2_0_8_89                                      0.5 	(obj:0)
fNew2_0_89_8                                      0.5 	(obj:0)
fNew2_0_14_92                       0.945945945945946 	(obj:0)
fNew2_0_45_14                       0.945945945945946 	(obj:0)
fNew2_0_20_45                                       1 	(obj:0)
fNew2_0_30_71                       0.891891891891892 	(obj:0)
fNew2_0_71_30                       0.891891891891892 	(obj:0)
fNew2_0_40_52                      0.0540540540540542 	(obj:0)
fNew2_0_45_40                      0.0540540540540542 	(obj:0)
fNew2_0_52_76                      0.0540540540540542 	(obj:0)
fNew2_0_69_92                      0.0540540540540542 	(obj:0)
fNew2_0_76_69                      0.0540540540540542 	(obj:0)
fNew2_0_92_201                                      1 	(obj:0)
fNew2_1_20_21                                       1 	(obj:0)
fNew2_1_21_202                                      1 	(obj:0)
fNew2_1_24_200                      0.936936936936936 	(obj:0)
fNew2_1_200_24                      0.936936936936936 	(obj:0)
fNew2_2_1_94                       0.0270270270270271 	(obj:0)
fNew2_2_22_1                       0.0270270270270271 	(obj:0)
fNew2_2_20_84                                       1 	(obj:0)
fNew2_2_84_22                      0.0270270270270271 	(obj:0)
fNew2_2_31_56                       0.297297297297297 	(obj:0)
fNew2_2_73_31                       0.297297297297297 	(obj:0)
fNew2_2_45_63                       0.972972972972973 	(obj:0)
fNew2_2_84_45                       0.972972972972973 	(obj:0)
fNew2_2_49_203                      0.675675675675676 	(obj:0)
fNew2_2_86_49                       0.675675675675676 	(obj:0)
fNew2_2_54_73                       0.297297297297297 	(obj:0)
fNew2_2_63_54                       0.297297297297297 	(obj:0)
fNew2_2_56_203                      0.297297297297297 	(obj:0)
fNew2_2_58_203                     0.0270270270270271 	(obj:0)
fNew2_2_94_58                      0.0270270270270271 	(obj:0)
fNew2_2_63_86                       0.675675675675676 	(obj:0)
fNew2_2_69_91                       0.198198198198198 	(obj:0)
fNew2_2_91_69                       0.198198198198198 	(obj:0)
fNew2_3_10_96                       0.666666666666667 	(obj:0)
fNew2_3_15_10                       0.666666666666667 	(obj:0)
fNew2_3_11_204                                      1 	(obj:0)
fNew2_3_18_11                        0.27027027027027 	(obj:0)
fNew2_3_24_11                      0.0630630630630636 	(obj:0)
fNew2_3_96_11                       0.666666666666667 	(obj:0)
fNew2_3_12_40                       0.333333333333333 	(obj:0)
fNew2_3_20_12                       0.333333333333333 	(obj:0)
fNew2_3_29_15                       0.666666666666667 	(obj:0)
fNew2_3_48_18                      0.0540540540540542 	(obj:0)
fNew2_3_76_18                       0.216216216216216 	(obj:0)
fNew2_3_20_84                       0.666666666666667 	(obj:0)
fNew2_3_92_24                      0.0630630630630636 	(obj:0)
fNew2_3_25_58                        0.27027027027027 	(obj:0)
fNew2_3_58_25                        0.27027027027027 	(obj:0)
fNew2_3_45_29                       0.666666666666667 	(obj:0)
fNew2_3_40_48                      0.0540540540540542 	(obj:0)
fNew2_3_40_76                       0.216216216216216 	(obj:0)
fNew2_3_40_92                      0.0630630630630636 	(obj:0)
fNew2_3_84_45                       0.666666666666667 	(obj:0)
fNew2_4_21_66                                       1 	(obj:0)
fNew2_4_84_21                                       1 	(obj:0)
fNew2_4_66_205                                      1 	(obj:0)
fNew2_5_2_83                        0.351351351351351 	(obj:0)
fNew2_5_13_2                        0.351351351351351 	(obj:0)
fNew2_5_12_27                       0.945945945945946 	(obj:0)
fNew2_5_20_12                       0.945945945945946 	(obj:0)
fNew2_5_83_13                       0.351351351351351 	(obj:0)
fNew2_5_16_206                                      1 	(obj:0)
fNew2_5_27_16                       0.945945945945946 	(obj:0)
fNew2_5_72_16                      0.0540540540540542 	(obj:0)
fNew2_5_20_62                      0.0540540540540542 	(obj:0)
fNew2_5_40_72                      0.0540540540540542 	(obj:0)
fNew2_5_62_40                      0.0540540540540542 	(obj:0)
fNew2_6_5_73                       0.0270270270270271 	(obj:0)
fNew2_6_21_5                       0.0270270270270271 	(obj:0)
fNew2_6_20_21                                       1 	(obj:0)
fNew2_6_21_63                       0.972972972972973 	(obj:0)
fNew2_6_31_207                      0.675675675675676 	(obj:0)
fNew2_6_53_31                       0.675675675675676 	(obj:0)
fNew2_6_49_207                      0.324324324324324 	(obj:0)
fNew2_6_53_49                       0.297297297297297 	(obj:0)
fNew2_6_73_49                      0.0270270270270271 	(obj:0)
fNew2_6_63_53                       0.972972972972973 	(obj:0)
fNew2_7_12_27                      0.0540540540540542 	(obj:0)
fNew2_7_20_12                      0.0540540540540542 	(obj:0)
fNew2_7_20_21                       0.945945945945946 	(obj:0)
fNew2_7_21_40                       0.126126126126126 	(obj:0)
fNew2_7_21_42                       0.792792792792793 	(obj:0)
fNew2_7_21_77                      0.0270270270270272 	(obj:0)
fNew2_7_26_63                       0.396396396396396 	(obj:0)
fNew2_7_42_26                       0.396396396396396 	(obj:0)
fNew2_7_27_39                      0.0540540540540542 	(obj:0)
fNew2_7_39_63                       0.576576576576577 	(obj:0)
fNew2_7_54_39                       0.126126126126126 	(obj:0)
fNew2_7_76_39                       0.396396396396397 	(obj:0)
fNew2_7_40_54                       0.126126126126126 	(obj:0)
fNew2_7_42_92                       0.396396396396397 	(obj:0)
fNew2_7_63_208                      0.972972972972973 	(obj:0)
fNew2_7_92_76                       0.396396396396397 	(obj:0)
fNew2_7_77_80                      0.0270270270270272 	(obj:0)
fNew2_7_80_99                      0.0270270270270272 	(obj:0)
fNew2_7_82_208                     0.0270270270270272 	(obj:0)
fNew2_7_99_82                      0.0270270270270272 	(obj:0)
fNew2_8_20_21                                       1 	(obj:0)
fNew2_8_21_63                       0.621621621621621 	(obj:0)
fNew2_8_21_98                       0.378378378378379 	(obj:0)
fNew2_8_47_99                       0.378378378378379 	(obj:0)
fNew2_8_98_47                       0.378378378378379 	(obj:0)
fNew2_8_56_83                       0.621621621621621 	(obj:0)
fNew2_8_82_56                       0.621621621621621 	(obj:0)
fNew2_8_60_209                      0.378378378378379 	(obj:0)
fNew2_8_99_60                       0.378378378378379 	(obj:0)
fNew2_8_63_82                       0.621621621621621 	(obj:0)
fNew2_8_83_209                      0.621621621621621 	(obj:0)
fNew2_9_4_18                        0.333333333333333 	(obj:0)
fNew2_9_4_78                        0.666666666666667 	(obj:0)
fNew2_9_32_4                        0.621621621621621 	(obj:0)
fNew2_9_33_4                        0.378378378378379 	(obj:0)
fNew2_9_9_30                        0.108108108108108 	(obj:0)
fNew2_9_30_9                        0.108108108108108 	(obj:0)
fNew2_9_18_96                       0.333333333333333 	(obj:0)
fNew2_9_20_32                       0.621621621621621 	(obj:0)
fNew2_9_20_45                       0.378378378378379 	(obj:0)
fNew2_9_45_33                       0.378378378378379 	(obj:0)
fNew2_9_78_210                      0.666666666666667 	(obj:0)
fNew2_9_96_210                      0.333333333333333 	(obj:0)
fNew2_10_3_50                       0.945945945945946 	(obj:0)
fNew2_10_59_3                       0.945945945945946 	(obj:0)
fNew2_10_4_78                                       1 	(obj:0)
fNew2_10_37_4                                       1 	(obj:0)
fNew2_10_20_37                                      1 	(obj:0)
fNew2_10_34_59                      0.945945945945946 	(obj:0)
fNew2_10_52_34                      0.891891891891892 	(obj:0)
fNew2_10_55_34                     0.0540540540540542 	(obj:0)
fNew2_10_35_211                     0.945945945945946 	(obj:0)
fNew2_10_50_35                      0.945945945945946 	(obj:0)
fNew2_10_51_79                     0.0540540540540542 	(obj:0)
fNew2_10_76_51                     0.0540540540540542 	(obj:0)
fNew2_10_52_76                     0.0540540540540542 	(obj:0)
fNew2_10_92_52                      0.945945945945946 	(obj:0)
fNew2_10_92_55                     0.0540540540540542 	(obj:0)
fNew2_10_71_211                    0.0540540540540542 	(obj:0)
fNew2_10_79_71                     0.0540540540540542 	(obj:0)
fNew2_10_78_92                                      1 	(obj:0)
fNew2_11_4_15                                       1 	(obj:0)
fNew2_11_29_4                                       1 	(obj:0)
fNew2_11_12_29                                      1 	(obj:0)
fNew2_11_20_12                                      1 	(obj:0)
fNew2_11_15_78                                      1 	(obj:0)
fNew2_11_78_212                                     1 	(obj:0)
fNew2_12_45_63                                      1 	(obj:0)
fNew2_12_84_45                                      1 	(obj:0)
fNew2_12_63_99                                      1 	(obj:0)
fNew2_12_99_213                                     1 	(obj:0)
fNew2_13_12_45                      0.945945945945946 	(obj:0)
fNew2_13_70_12                      0.945945945945946 	(obj:0)
fNew2_13_20_32                     0.0540540540540542 	(obj:0)
fNew2_13_20_70                      0.945945945945946 	(obj:0)
fNew2_13_32_40                     0.0540540540540542 	(obj:0)
fNew2_13_40_90                     0.0540540540540542 	(obj:0)
fNew2_13_45_63                      0.945945945945946 	(obj:0)
fNew2_13_47_214                     0.621621621621621 	(obj:0)
fNew2_13_63_47                      0.567567567567567 	(obj:0)
fNew2_13_90_47                     0.0540540540540542 	(obj:0)
fNew2_13_63_85                      0.378378378378379 	(obj:0)
fNew2_13_81_214                     0.378378378378379 	(obj:0)
fNew2_13_85_81                      0.378378378378379 	(obj:0)
fNew2_13_87_89                                    0.5 	(obj:0)
fNew2_13_89_87                                    0.5 	(obj:0)
fNew2_14_12_42                                      1 	(obj:0)
fNew2_14_20_12                                      1 	(obj:0)
fNew2_14_28_215                                     1 	(obj:0)
fNew2_14_61_28                                      1 	(obj:0)
fNew2_14_42_61                                      1 	(obj:0)
fNew2_15_2_67                       0.945945945945946 	(obj:0)
fNew2_15_60_2                       0.945945945945946 	(obj:0)
fNew2_15_7_93                       0.324324324324324 	(obj:0)
fNew2_15_12_7                       0.324324324324324 	(obj:0)
fNew2_15_10_18                     0.0540540540540542 	(obj:0)
fNew2_15_88_10                     0.0540540540540542 	(obj:0)
fNew2_15_12_29                     0.0540540540540542 	(obj:0)
fNew2_15_20_12                      0.378378378378379 	(obj:0)
fNew2_15_15_88                     0.0540540540540542 	(obj:0)
fNew2_15_29_15                     0.0540540540540542 	(obj:0)
fNew2_15_18_97                     0.0540540540540542 	(obj:0)
fNew2_15_19_216                                     1 	(obj:0)
fNew2_15_50_19                     0.0540540540540542 	(obj:0)
fNew2_15_67_19                      0.945945945945946 	(obj:0)
fNew2_15_25_81                      0.324324324324324 	(obj:0)
fNew2_15_94_25                      0.324324324324324 	(obj:0)
fNew2_15_45_77                      0.621621621621621 	(obj:0)
fNew2_15_84_45                      0.621621621621621 	(obj:0)
fNew2_15_59_50                     0.0540540540540542 	(obj:0)
fNew2_15_97_59                     0.0540540540540542 	(obj:0)
fNew2_15_99_60                      0.945945945945946 	(obj:0)
fNew2_15_63_99                      0.621621621621621 	(obj:0)
fNew2_15_77_63                      0.621621621621621 	(obj:0)
fNew2_15_73_94                      0.324324324324324 	(obj:0)
fNew2_15_86_73                      0.324324324324324 	(obj:0)
fNew2_15_75_99                      0.324324324324324 	(obj:0)
fNew2_15_81_75                      0.324324324324324 	(obj:0)
fNew2_15_91_86                      0.324324324324324 	(obj:0)
fNew2_15_93_91                      0.324324324324324 	(obj:0)
fNew2_16_5_39                       0.423423423423423 	(obj:0)
fNew2_16_45_5                       0.423423423423423 	(obj:0)
fNew2_16_8_87                                     0.5 	(obj:0)
fNew2_16_87_8                                     0.5 	(obj:0)
fNew2_16_9_217                                      1 	(obj:0)
fNew2_16_59_9                                       1 	(obj:0)
fNew2_16_20_21                      0.576576576576577 	(obj:0)
fNew2_16_20_45                      0.423423423423423 	(obj:0)
fNew2_16_21_63                      0.576576576576577 	(obj:0)
fNew2_16_34_59                                      1 	(obj:0)
fNew2_16_90_34                      0.576576576576577 	(obj:0)
fNew2_16_91_34                      0.423423423423423 	(obj:0)
fNew2_16_39_92                      0.423423423423423 	(obj:0)
fNew2_16_54_90                      0.576576576576577 	(obj:0)
fNew2_16_63_54                      0.576576576576577 	(obj:0)
fNew2_16_92_91                      0.423423423423423 	(obj:0)
fNew2_17_2_67                      0.0540540540540542 	(obj:0)
fNew2_17_99_2                      0.0540540540540542 	(obj:0)
fNew2_17_20_45                     0.0540540540540542 	(obj:0)
fNew2_17_20_84                      0.945945945945946 	(obj:0)
fNew2_17_29_72                      0.945945945945946 	(obj:0)
fNew2_17_64_29                      0.945945945945946 	(obj:0)
fNew2_17_35_71                     0.0540540540540542 	(obj:0)
fNew2_17_59_35                     0.0540540540540542 	(obj:0)
fNew2_17_45_63                     0.0540540540540542 	(obj:0)
fNew2_17_51_79                      0.945945945945946 	(obj:0)
fNew2_17_55_51                      0.945945945945946 	(obj:0)
fNew2_17_72_55                      0.945945945945946 	(obj:0)
fNew2_17_67_59                     0.0540540540540542 	(obj:0)
fNew2_17_63_99                     0.0540540540540542 	(obj:0)
fNew2_17_84_64                      0.945945945945946 	(obj:0)
fNew2_17_71_218                    0.0540540540540542 	(obj:0)
fNew2_17_79_218                     0.945945945945946 	(obj:0)
fNew2_18_12_219                                     1 	(obj:0)
fNew2_18_20_12                                      1 	(obj:0)
fNew2_19_5_220                       0.54954954954955 	(obj:0)
fNew2_19_12_5                      0.0540540540540542 	(obj:0)
fNew2_19_62_5                       0.495495495495496 	(obj:0)
fNew2_19_20_12                     0.0540540540540542 	(obj:0)
fNew2_19_20_62                      0.945945945945946 	(obj:0)
fNew2_19_25_74                      0.108108108108108 	(obj:0)
fNew2_19_74_25                      0.108108108108108 	(obj:0)
fNew2_19_26_220                      0.45045045045045 	(obj:0)
fNew2_19_62_26                       0.45045045045045 	(obj:0)
fNew2_20_21_221                                     1 	(obj:0)
fNew2_20_84_21                                      1 	(obj:0)
fNew2_21_16_222                    0.0270270270270272 	(obj:0)
fNew2_21_91_16                     0.0270270270270272 	(obj:0)
fNew2_21_17_95                      0.972972972972973 	(obj:0)
fNew2_21_20_17                      0.972972972972973 	(obj:0)
fNew2_21_20_84                     0.0270270270270272 	(obj:0)
fNew2_21_40_91                     0.0270270270270272 	(obj:0)
fNew2_21_45_40                     0.0270270270270272 	(obj:0)
fNew2_21_84_45                     0.0270270270270272 	(obj:0)
fNew2_21_80_222                     0.972972972972973 	(obj:0)
fNew2_21_95_80                      0.972972972972973 	(obj:0)
fNew2_22_4_48                       0.945945945945946 	(obj:0)
fNew2_22_17_4                       0.945945945945946 	(obj:0)
fNew2_22_12_14                     0.0540540540540542 	(obj:0)
fNew2_22_20_12                     0.0540540540540542 	(obj:0)
fNew2_22_14_92                     0.0540540540540542 	(obj:0)
fNew2_22_84_17                      0.945945945945946 	(obj:0)
fNew2_22_84_20                     0.0540540540540542 	(obj:0)
fNew2_22_48_88                      0.945945945945946 	(obj:0)
fNew2_22_69_223                    0.0540540540540542 	(obj:0)
fNew2_22_92_69                     0.0540540540540542 	(obj:0)
fNew2_22_88_97                      0.945945945945946 	(obj:0)
fNew2_22_97_223                     0.945945945945946 	(obj:0)
fNew2_23_7_16                       0.324324324324324 	(obj:0)
fNew2_23_32_7                       0.324324324324324 	(obj:0)
fNew2_23_12_98                      0.621621621621621 	(obj:0)
fNew2_23_84_12                      0.621621621621621 	(obj:0)
fNew2_23_16_224                                     1 	(obj:0)
fNew2_23_93_16                      0.675675675675676 	(obj:0)
fNew2_23_21_33                     0.0540540540540542 	(obj:0)
fNew2_23_84_21                     0.0540540540540542 	(obj:0)
fNew2_23_84_32                      0.324324324324324 	(obj:0)
fNew2_23_33_93                     0.0540540540540542 	(obj:0)
fNew2_23_56_83                     0.0270270270270271 	(obj:0)
fNew2_23_75_56                     0.0270270270270271 	(obj:0)
fNew2_23_65_69                      0.288288288288288 	(obj:0)
fNew2_23_69_65                      0.288288288288288 	(obj:0)
fNew2_23_83_75                     0.0270270270270271 	(obj:0)
fNew2_23_98_93                      0.621621621621621 	(obj:0)
fNew2_24_7_90                                       1 	(obj:0)
fNew2_24_45_7                                       1 	(obj:0)
fNew2_24_20_45                                      1 	(obj:0)
fNew2_24_23_225                                     1 	(obj:0)
fNew2_24_99_23                                      1 	(obj:0)
fNew2_24_63_99                                      1 	(obj:0)
fNew2_24_90_63                                      1 	(obj:0)
fNew2_25_20_45                      0.945945945945946 	(obj:0)
fNew2_25_29_65                     0.0540540540540542 	(obj:0)
fNew2_25_64_29                     0.0540540540540542 	(obj:0)
fNew2_25_40_65                      0.351351351351351 	(obj:0)
fNew2_25_42_40                      0.351351351351351 	(obj:0)
fNew2_25_42_92                      0.594594594594595 	(obj:0)
fNew2_25_45_42                      0.945945945945946 	(obj:0)
fNew2_25_70_64                     0.0540540540540542 	(obj:0)
fNew2_25_65_69                      0.405405405405405 	(obj:0)
fNew2_25_69_226                     0.405405405405405 	(obj:0)
fNew2_25_92_226                     0.594594594594595 	(obj:0)
fNew2_26_2_227                                      1 	(obj:0)
fNew2_26_31_2                      0.0270270270270272 	(obj:0)
fNew2_26_99_2                       0.972972972972973 	(obj:0)
fNew2_26_29_65                     0.0270270270270272 	(obj:0)
fNew2_26_45_29                     0.0270270270270272 	(obj:0)
fNew2_26_53_31                     0.0270270270270272 	(obj:0)
fNew2_26_44_84                                      1 	(obj:0)
fNew2_26_45_63                      0.621621621621621 	(obj:0)
fNew2_26_45_77                      0.351351351351351 	(obj:0)
fNew2_26_84_45                                      1 	(obj:0)
fNew2_26_91_53                     0.0270270270270272 	(obj:0)
fNew2_26_63_85                      0.621621621621621 	(obj:0)
fNew2_26_65_92                     0.0270270270270272 	(obj:0)
fNew2_26_73_82                      0.351351351351351 	(obj:0)
fNew2_26_77_73                      0.351351351351351 	(obj:0)
fNew2_26_82_99                      0.351351351351351 	(obj:0)
fNew2_26_85_99                      0.621621621621621 	(obj:0)
fNew2_26_92_91                     0.0270270270270272 	(obj:0)
fNew2_27_13_75                      0.648648648648649 	(obj:0)
fNew2_27_94_13                      0.648648648648649 	(obj:0)
fNew2_27_18_200                    0.0630630630630636 	(obj:0)
fNew2_27_200_18                    0.0630630630630636 	(obj:0)
fNew2_27_20_228                                     1 	(obj:0)
fNew2_27_25_74                      0.297297297297297 	(obj:0)
fNew2_27_81_25                      0.297297297297297 	(obj:0)
fNew2_27_56_81                     0.0540540540540542 	(obj:0)
fNew2_27_75_56                     0.0540540540540542 	(obj:0)
fNew2_27_74_81                      0.243243243243243 	(obj:0)
fNew2_27_74_94                      0.648648648648649 	(obj:0)
fNew2_27_75_74                      0.594594594594594 	(obj:0)
fNew2_28_10_78                      0.279279279279279 	(obj:0)
fNew2_28_15_10                      0.279279279279279 	(obj:0)
fNew2_28_42_15                      0.279279279279279 	(obj:0)
fNew2_28_18_76                      0.279279279279279 	(obj:0)
fNew2_28_65_18                      0.279279279279279 	(obj:0)
fNew2_28_21_33                      0.567567567567567 	(obj:0)
fNew2_28_45_21                      0.567567567567567 	(obj:0)
fNew2_28_26_229                     0.153153153153154 	(obj:0)
fNew2_28_42_26                      0.153153153153154 	(obj:0)
fNew2_28_33_90                      0.567567567567567 	(obj:0)
fNew2_28_45_42                      0.432432432432433 	(obj:0)
fNew2_28_84_45                                      1 	(obj:0)
fNew2_28_78_65                      0.279279279279279 	(obj:0)
fNew2_28_76_229                     0.279279279279279 	(obj:0)
fNew2_28_90_229                     0.567567567567567 	(obj:0)
fNew2_29_1_230                      0.972972972972973 	(obj:0)
fNew2_29_22_1                       0.972972972972973 	(obj:0)
fNew2_29_2_99                                       1 	(obj:0)
fNew2_29_36_2                                       1 	(obj:0)
fNew2_29_12_95                     0.0270270270270271 	(obj:0)
fNew2_29_21_12                     0.0270270270270271 	(obj:0)
fNew2_29_21_22                      0.972972972972973 	(obj:0)
fNew2_29_84_21                                      1 	(obj:0)
fNew2_29_99_36                                      1 	(obj:0)
fNew2_29_95_230                    0.0270270270270271 	(obj:0)
fNew2_0_0_20                                        1 	(obj:0)
fNew2_1_0_20                                        1 	(obj:0)
fNew2_2_0_20                                        1 	(obj:0)
fNew2_3_0_20                                        1 	(obj:0)
fNew2_4_0_84                                        1 	(obj:0)
fNew2_5_0_20                                        1 	(obj:0)
fNew2_6_0_20                                        1 	(obj:0)
fNew2_7_0_20                                        1 	(obj:0)
fNew2_8_0_20                                        1 	(obj:0)
fNew2_9_0_20                                        1 	(obj:0)
fNew2_10_0_20                                       1 	(obj:0)
fNew2_11_0_20                                       1 	(obj:0)
fNew2_12_0_84                                       1 	(obj:0)
fNew2_13_0_20                                       1 	(obj:0)
fNew2_14_0_20                                       1 	(obj:0)
fNew2_15_0_20                       0.378378378378379 	(obj:0)
fNew2_15_0_84                       0.621621621621621 	(obj:0)
fNew2_16_0_20                                       1 	(obj:0)
